54 89 155 113 69 123 144 45 53 126 124 184 
174 157 94 151 27 24 136 120 122 185 93 103 
156 36 102 119 70 198 38 99 163 132 25 164 
78 79 6 49 167 51 16 195 28 187 130 56 65 
4 105 29 139 21 173 188 50 168 194 153 63 200 83 
178 43 135 26 170 110 148 19 34 1 8 
171 47 32 192 117 121 11 137 58 96 180 131 
100 147 40 95 90 81 160 22 64 30 
92 169 48 129 80 196 127 107 76 2 
46 75 191 97 116 73 5 141 77 10 162 150 
166 12 111 106 31 128 177 39 193 
199 138 145 82 55 33 109 85 114 
172 35 159 15 182 41 71 179 
57 189 23 74 52 154 17 13 62 143 
142 133 98 161 3 183 61 152 42 20 175 
149 104 60 181 146 67 140 84 87 66 9 37 
91 18 72 7 44 186 14 86 108 112 125 
197 176 134 158 101 190 68 
88 118 115 
165 
59 

